
Gurobi 6.0.4 (win64) logging started 06/20/15 12:04:19

Read LP format model from file C:\MT\repository\VRPTWMS\instances\mip\fuel\N8-C_DV100-C_SV30_F6_10_No_1.lp
Reading time = 0.01 seconds
(null): 417 rows, 208 columns, 1715 nonzeros
Optimize a model with 417 rows, 208 columns and 1715 nonzeros
Model has 576 quadratic constraints
Coefficient statistics:
  Matrix range    [1e+00, 1e+06]
  Objective range [7e+04, 1e+07]
  Bounds range    [1e+00, 1e+06]
  RHS range       [1e+00, 1e+06]
Presolve removed 44 rows and 30 columns
Presolve time: 0.08s
Presolved: 1273 rows, 648 columns, 6149 nonzeros
Variable types: 430 continuous, 218 integer (175 binary)
Found heuristic solution: objective 8.437240e+07

Root relaxation: objective 1.250559e+07, 92 iterations, 0.00 seconds

    Nodes    |    Current Node    |     Objective Bounds      |     Work
 Expl Unexpl |  Obj  Depth IntInf | Incumbent    BestBd   Gap | It/Node Time

     0     0 1.2506e+07    0   28 8.4372e+07 1.2506e+07  85.2%     -    0s
H    0     0                    6.352270e+07 1.2506e+07  80.3%     -    0s
     0     0 1.3981e+07    0   49 6.3523e+07 1.3981e+07  78.0%     -    0s
     0     0 1.7181e+07    0   74 6.3523e+07 1.7181e+07  73.0%     -    0s
     0     0 1.8161e+07    0   74 6.3523e+07 1.8161e+07  71.4%     -    0s
H    0     0                    6.316360e+07 1.8161e+07  71.2%     -    0s
H    0     0                    5.276570e+07 1.8161e+07  65.6%     -    0s
     0     0 1.8390e+07    0   89 5.2766e+07 1.8390e+07  65.1%     -    0s
     0     0 1.8390e+07    0   92 5.2766e+07 1.8390e+07  65.1%     -    0s
     0     0 1.8390e+07    0   85 5.2766e+07 1.8390e+07  65.1%     -    0s
     0     0 1.8489e+07    0   60 5.2766e+07 1.8489e+07  65.0%     -    0s
H    0     0                    3.310870e+07 1.8489e+07  44.2%     -    0s
     0     0 1.8594e+07    0   66 3.3109e+07 1.8594e+07  43.8%     -    0s
     0     0 1.8609e+07    0   70 3.3109e+07 1.8609e+07  43.8%     -    0s
     0     0 1.8609e+07    0   71 3.3109e+07 1.8609e+07  43.8%     -    0s
     0     0 1.8609e+07    0   62 3.3109e+07 1.8609e+07  43.8%     -    0s
     0     0 1.8609e+07    0   66 3.3109e+07 1.8609e+07  43.8%     -    0s
     0     0 1.8609e+07    0   56 3.3109e+07 1.8609e+07  43.8%     -    0s
     0     2 1.8609e+07    0   50 3.3109e+07 1.8609e+07  43.8%     -    0s
*  140    60              13    3.241690e+07 2.2209e+07  31.5%  12.5    0s
H 1585   400                    3.237890e+07 2.2821e+07  29.5%  20.3    1s
  6546   244 2.7592e+07   13   40 3.2379e+07 2.4754e+07  23.6%  21.8    5s

Cutting planes:
  Gomory: 1
  Cover: 313
  Implied bound: 331
  Clique: 17
  MIR: 52
  GUB cover: 10
  Zero half: 1

Explored 7491 nodes (159627 simplex iterations) in 5.71 seconds
Thread count was 2 (of 4 available processors)

Optimal solution found (tolerance 1.00e-04)
Best objective 3.237890000000e+07, best bound 3.237890000000e+07, gap 0.0%
k_c1	859999.0
k_c2	40000.0
k_c3	50000.0
k_c4	1000000.0
k_c5	130000.0
k_c6	90000.0
k_c7	970000.0
k_c8	60000.0
k_dN	-0.0
o_1	-0.0
o_2	0.0
o_3	-0.0
o_4	0.0
o_5	-0.0
o_6	-0.0
o_7	0.0
o_8	-0.0
p_1	0.0
p_2	0.0
p_3	0.0
p_4	0.0
p_5	0.0
p_6	-0.0
p_7	0.0
p_8	-0.0
phi_c1	30466.0
phi_c2	17949.0
phi_c3	25977.0
phi_c4	48092.0
phi_c5	32205.0
phi_c6	26004.0
phi_c7	54081.0
phi_c8	23408.0
phi_dN	0.0
pi_c1	240000.0
pi_c2	0.0
pi_c3	257949.0
pi_c4	257949.0
pi_c5	240000.0
pi_c6	240000.0
pi_c7	257949.0
pi_c8	240000.0
pi_dN	-0.0
tauD_c1	250000.0
tauD_c2	450000.0
tauD_c3	600000.0
tauD_c4	100000.0
tauD_c5	557125.0
tauD_c6	200000.0
tauD_c7	57350.0
tauD_c8	650000.0
tauD_d0	-0.0
tauD_dN	1000000.0
tauS_c1	632024.0
tauS_c2	760850.0
tauS_c3	822925.0
tauS_c4	875500.0
tauS_c5	337000.0
tauS_c6	464050.0
tauS_c7	899375.0
tauS_c8	233275.0
tauS_d0	-0.0
tauS_dN	1000000.0
x_c1_c3	1.0
x_c2_dN	1.0
x_c3_dN	1.0
x_c4_c1	1.0
x_c5_c8	1.0
x_c6_c2	1.0
x_c7_c5	1.0
x_c8_dN	1.0
x_d0_c4	1.0
x_d0_c6	1.0
x_d0_c7	1.0
